p cnf 597 2182
c input variables 20
c output variables 1
c literals 6268
-21 5 0
21 -5 10 0
-21 -10 0
-22 4 0
22 -4 5 9 10 0
-22 5 -10 0
-22 -9 0
22 -4 -5 9 -10 0
-22 -5 10 0
23 -22 0
-23 21 22 0
23 -21 0
-24 3 0
24 -3 5 8 10 0
-24 5 -10 0
-24 -8 0
24 -3 -5 8 -10 0
-24 -5 10 0
25 4 9 -24 0
-25 24 0
-25 4 -9 0
-25 -4 9 0
25 -4 -9 -24 0
26 -25 0
-26 23 25 0
26 -23 0
-27 2 0
27 -2 5 7 10 0
-27 5 -10 0
-27 -7 0
27 -2 -5 7 -10 0
-27 -5 10 0
28 4 9 -27 0
-28 27 0
-28 4 -9 0
-28 -4 9 0
28 -4 -9 -27 0
29 3 8 -28 0
-29 28 0
-29 3 -8 0
-29 -3 8 0
29 -3 -8 -28 0
30 -29 0
-30 26 29 0
30 -26 0
-31 1 0
31 -1 5 6 10 0
-31 5 -10 0
-31 -6 0
31 -1 -5 6 -10 0
-31 -5 10 0
32 4 9 -31 0
-32 31 0
-32 4 -9 0
-32 -4 9 0
32 -4 -9 -31 0
33 3 8 -32 0
-33 32 0
-33 3 -8 0
-33 -3 8 0
33 -3 -8 -32 0
34 2 7 -33 0
-34 33 0
-34 2 -7 0
-34 -2 7 0
34 -2 -7 -33 0
35 -34 0
-35 30 34 0
35 -30 0
36 -1 35 0
36 -6 -35 0
-36 1 35 0
-36 6 -35 0
37 -2 35 0
37 -7 -35 0
-37 2 35 0
-37 7 -35 0
38 -3 35 0
38 -8 -35 0
-38 3 35 0
-38 8 -35 0
39 -4 35 0
39 -9 -35 0
-39 4 35 0
-39 9 -35 0
40 -5 35 0
40 -10 -35 0
-40 5 35 0
-40 10 -35 0
41 -6 35 0
41 -1 -35 0
-41 6 35 0
-41 1 -35 0
42 -7 35 0
42 -2 -35 0
-42 7 35 0
-42 2 -35 0
43 -8 35 0
43 -3 -35 0
-43 8 35 0
-43 3 -35 0
44 -9 35 0
44 -4 -35 0
-44 9 35 0
-44 4 -35 0
45 -10 35 0
45 -5 -35 0
-45 10 35 0
-45 5 -35 0
46 15 -45 0
-46 45 0
-46 -15 0
-47 44 0
47 14 15 -44 45 0
-47 15 -45 0
47 14 -15 -44 -45 0
-47 -15 45 0
-47 -14 0
48 -47 0
-48 46 47 0
48 -46 0
-49 43 0
49 13 15 -43 45 0
-49 15 -45 0
49 13 -15 -43 -45 0
-49 -15 45 0
-49 -13 0
50 14 44 -49 0
-50 49 0
-50 14 -44 0
-50 -14 44 0
50 -14 -44 -49 0
51 -50 0
-51 48 50 0
51 -48 0
-52 42 0
52 12 15 -42 45 0
-52 15 -45 0
52 12 -15 -42 -45 0
-52 -15 45 0
-52 -12 0
53 14 44 -52 0
-53 52 0
-53 14 -44 0
-53 -14 44 0
53 -14 -44 -52 0
54 13 43 -53 0
-54 53 0
-54 13 -43 0
-54 -13 43 0
54 -13 -43 -53 0
55 -54 0
-55 51 54 0
55 -51 0
-56 41 0
56 11 15 -41 45 0
-56 15 -45 0
56 11 -15 -41 -45 0
-56 -15 45 0
-56 -11 0
57 14 44 -56 0
-57 56 0
-57 14 -44 0
-57 -14 44 0
57 -14 -44 -56 0
58 13 43 -57 0
-58 57 0
-58 13 -43 0
-58 -13 43 0
58 -13 -43 -57 0
59 12 42 -58 0
-59 58 0
-59 12 -42 0
-59 -12 42 0
59 -12 -42 -58 0
60 -59 0
-60 55 59 0
60 -55 0
61 -41 60 0
61 -11 -60 0
-61 41 60 0
-61 11 -60 0
62 -42 60 0
62 -12 -60 0
-62 42 60 0
-62 12 -60 0
63 -43 60 0
63 -13 -60 0
-63 43 60 0
-63 13 -60 0
64 -44 60 0
64 -14 -60 0
-64 44 60 0
-64 14 -60 0
65 -45 60 0
65 -15 -60 0
-65 45 60 0
-65 15 -60 0
66 -11 60 0
66 -41 -60 0
-66 11 60 0
-66 41 -60 0
67 -12 60 0
67 -42 -60 0
-67 12 60 0
-67 42 -60 0
68 -13 60 0
68 -43 -60 0
-68 13 60 0
-68 43 -60 0
69 -14 60 0
69 -44 -60 0
-69 14 60 0
-69 44 -60 0
70 -15 60 0
70 -45 -60 0
-70 15 60 0
-70 45 -60 0
71 20 -70 0
-71 70 0
-71 -20 0
-72 69 0
72 19 20 -69 70 0
-72 20 -70 0
72 19 -20 -69 -70 0
-72 -20 70 0
-72 -19 0
73 -72 0
-73 71 72 0
73 -71 0
-74 68 0
74 18 20 -68 70 0
-74 20 -70 0
74 18 -20 -68 -70 0
-74 -20 70 0
-74 -18 0
75 19 69 -74 0
-75 74 0
-75 19 -69 0
-75 -19 69 0
75 -19 -69 -74 0
76 -75 0
-76 73 75 0
76 -73 0
-77 67 0
77 17 20 -67 70 0
-77 20 -70 0
77 17 -20 -67 -70 0
-77 -20 70 0
-77 -17 0
78 19 69 -77 0
-78 77 0
-78 19 -69 0
-78 -19 69 0
78 -19 -69 -77 0
79 18 68 -78 0
-79 78 0
-79 18 -68 0
-79 -18 68 0
79 -18 -68 -78 0
80 -79 0
-80 76 79 0
80 -76 0
-81 66 0
81 16 20 -66 70 0
-81 20 -70 0
81 16 -20 -66 -70 0
-81 -20 70 0
-81 -16 0
82 19 69 -81 0
-82 81 0
-82 19 -69 0
-82 -19 69 0
82 -19 -69 -81 0
83 18 68 -82 0
-83 82 0
-83 18 -68 0
-83 -18 68 0
83 -18 -68 -82 0
84 17 67 -83 0
-84 83 0
-84 17 -67 0
-84 -17 67 0
84 -17 -67 -83 0
85 -84 0
-85 80 84 0
85 -80 0
86 -66 85 0
86 -16 -85 0
-86 66 85 0
-86 16 -85 0
87 -67 85 0
87 -17 -85 0
-87 67 85 0
-87 17 -85 0
88 -68 85 0
88 -18 -85 0
-88 68 85 0
-88 18 -85 0
89 -69 85 0
89 -19 -85 0
-89 69 85 0
-89 19 -85 0
90 -70 85 0
90 -20 -85 0
-90 70 85 0
-90 20 -85 0
91 -16 85 0
91 -66 -85 0
-91 16 85 0
-91 66 -85 0
92 -17 85 0
92 -67 -85 0
-92 17 85 0
-92 67 -85 0
93 -18 85 0
93 -68 -85 0
-93 18 85 0
-93 68 -85 0
94 -19 85 0
94 -69 -85 0
-94 19 85 0
-94 69 -85 0
95 -20 85 0
95 -70 -85 0
-95 20 85 0
-95 70 -85 0
-96 40 0
96 -40 65 0
-96 -65 0
-97 39 0
97 -39 40 64 65 0
-97 40 -65 0
-97 -64 0
97 -39 -40 64 -65 0
-97 -40 65 0
98 -97 0
-98 96 97 0
98 -96 0
-99 38 0
99 -38 40 63 65 0
-99 40 -65 0
-99 -63 0
99 -38 -40 63 -65 0
-99 -40 65 0
100 39 64 -99 0
-100 99 0
-100 39 -64 0
-100 -39 64 0
100 -39 -64 -99 0
101 -100 0
-101 98 100 0
101 -98 0
-102 37 0
102 -37 40 62 65 0
-102 40 -65 0
-102 -62 0
102 -37 -40 62 -65 0
-102 -40 65 0
103 39 64 -102 0
-103 102 0
-103 39 -64 0
-103 -39 64 0
103 -39 -64 -102 0
104 38 63 -103 0
-104 103 0
-104 38 -63 0
-104 -38 63 0
104 -38 -63 -103 0
105 -104 0
-105 101 104 0
105 -101 0
-106 36 0
106 -36 40 61 65 0
-106 40 -65 0
-106 -61 0
106 -36 -40 61 -65 0
-106 -40 65 0
107 39 64 -106 0
-107 106 0
-107 39 -64 0
-107 -39 64 0
107 -39 -64 -106 0
108 38 63 -107 0
-108 107 0
-108 38 -63 0
-108 -38 63 0
108 -38 -63 -107 0
109 37 62 -108 0
-109 108 0
-109 37 -62 0
-109 -37 62 0
109 -37 -62 -108 0
110 -109 0
-110 105 109 0
110 -105 0
111 -36 110 0
111 -61 -110 0
-111 36 110 0
-111 61 -110 0
112 -37 110 0
112 -62 -110 0
-112 37 110 0
-112 62 -110 0
113 -38 110 0
113 -63 -110 0
-113 38 110 0
-113 63 -110 0
114 -39 110 0
114 -64 -110 0
-114 39 110 0
-114 64 -110 0
115 -40 110 0
115 -65 -110 0
-115 40 110 0
-115 65 -110 0
116 -61 110 0
116 -36 -110 0
-116 61 110 0
-116 36 -110 0
117 -62 110 0
117 -37 -110 0
-117 62 110 0
-117 37 -110 0
118 -63 110 0
118 -38 -110 0
-118 63 110 0
-118 38 -110 0
119 -64 110 0
119 -39 -110 0
-119 64 110 0
-119 39 -110 0
120 -65 110 0
120 -40 -110 0
-120 65 110 0
-120 40 -110 0
121 90 -120 0
-121 120 0
-121 -90 0
-122 119 0
122 89 90 -119 120 0
-122 90 -120 0
122 89 -90 -119 -120 0
-122 -90 120 0
-122 -89 0
123 -122 0
-123 121 122 0
123 -121 0
-124 118 0
124 88 90 -118 120 0
-124 90 -120 0
124 88 -90 -118 -120 0
-124 -90 120 0
-124 -88 0
125 89 119 -124 0
-125 124 0
-125 89 -119 0
-125 -89 119 0
125 -89 -119 -124 0
126 -125 0
-126 123 125 0
126 -123 0
-127 117 0
127 87 90 -117 120 0
-127 90 -120 0
127 87 -90 -117 -120 0
-127 -90 120 0
-127 -87 0
128 89 119 -127 0
-128 127 0
-128 89 -119 0
-128 -89 119 0
128 -89 -119 -127 0
129 88 118 -128 0
-129 128 0
-129 88 -118 0
-129 -88 118 0
129 -88 -118 -128 0
130 -129 0
-130 126 129 0
130 -126 0
-131 116 0
131 86 90 -116 120 0
-131 90 -120 0
131 86 -90 -116 -120 0
-131 -90 120 0
-131 -86 0
132 89 119 -131 0
-132 131 0
-132 89 -119 0
-132 -89 119 0
132 -89 -119 -131 0
133 88 118 -132 0
-133 132 0
-133 88 -118 0
-133 -88 118 0
133 -88 -118 -132 0
134 87 117 -133 0
-134 133 0
-134 87 -117 0
-134 -87 117 0
134 -87 -117 -133 0
135 -134 0
-135 130 134 0
135 -130 0
136 -116 135 0
136 -86 -135 0
-136 116 135 0
-136 86 -135 0
137 -117 135 0
137 -87 -135 0
-137 117 135 0
-137 87 -135 0
138 -118 135 0
138 -88 -135 0
-138 118 135 0
-138 88 -135 0
139 -119 135 0
139 -89 -135 0
-139 119 135 0
-139 89 -135 0
140 -120 135 0
140 -90 -135 0
-140 120 135 0
-140 90 -135 0
141 -86 135 0
141 -116 -135 0
-141 86 135 0
-141 116 -135 0
142 -87 135 0
142 -117 -135 0
-142 87 135 0
-142 117 -135 0
143 -88 135 0
143 -118 -135 0
-143 88 135 0
-143 118 -135 0
144 -89 135 0
144 -119 -135 0
-144 89 135 0
-144 119 -135 0
145 -90 135 0
145 -120 -135 0
-145 90 135 0
-145 120 -135 0
-146 115 0
146 -115 140 0
-146 -140 0
-147 114 0
147 -114 115 139 140 0
-147 115 -140 0
-147 -139 0
147 -114 -115 139 -140 0
-147 -115 140 0
148 -147 0
-148 146 147 0
148 -146 0
-149 113 0
149 -113 115 138 140 0
-149 115 -140 0
-149 -138 0
149 -113 -115 138 -140 0
-149 -115 140 0
150 114 139 -149 0
-150 149 0
-150 114 -139 0
-150 -114 139 0
150 -114 -139 -149 0
151 -150 0
-151 148 150 0
151 -148 0
-152 112 0
152 -112 115 137 140 0
-152 115 -140 0
-152 -137 0
152 -112 -115 137 -140 0
-152 -115 140 0
153 114 139 -152 0
-153 152 0
-153 114 -139 0
-153 -114 139 0
153 -114 -139 -152 0
154 113 138 -153 0
-154 153 0
-154 113 -138 0
-154 -113 138 0
154 -113 -138 -153 0
155 -154 0
-155 151 154 0
155 -151 0
-156 111 0
156 -111 115 136 140 0
-156 115 -140 0
-156 -136 0
156 -111 -115 136 -140 0
-156 -115 140 0
157 114 139 -156 0
-157 156 0
-157 114 -139 0
-157 -114 139 0
157 -114 -139 -156 0
158 113 138 -157 0
-158 157 0
-158 113 -138 0
-158 -113 138 0
158 -113 -138 -157 0
159 112 137 -158 0
-159 158 0
-159 112 -137 0
-159 -112 137 0
159 -112 -137 -158 0
160 -159 0
-160 155 159 0
160 -155 0
161 -111 160 0
161 -136 -160 0
-161 111 160 0
-161 136 -160 0
162 -112 160 0
162 -137 -160 0
-162 112 160 0
-162 137 -160 0
163 -113 160 0
163 -138 -160 0
-163 113 160 0
-163 138 -160 0
164 -114 160 0
164 -139 -160 0
-164 114 160 0
-164 139 -160 0
165 -115 160 0
165 -140 -160 0
-165 115 160 0
-165 140 -160 0
166 -136 160 0
166 -111 -160 0
-166 136 160 0
-166 111 -160 0
167 -137 160 0
167 -112 -160 0
-167 137 160 0
-167 112 -160 0
168 -138 160 0
168 -113 -160 0
-168 138 160 0
-168 113 -160 0
169 -139 160 0
169 -114 -160 0
-169 139 160 0
-169 114 -160 0
170 -140 160 0
170 -115 -160 0
-170 140 160 0
-170 115 -160 0
171 5 -10 0
-171 10 0
-171 -5 0
-172 9 0
172 4 5 -9 10 0
-172 5 -10 0
172 4 -5 -9 -10 0
-172 -5 10 0
-172 -4 0
173 -172 0
-173 171 172 0
173 -171 0
-174 8 0
174 3 5 -8 10 0
-174 5 -10 0
174 3 -5 -8 -10 0
-174 -5 10 0
-174 -3 0
175 4 9 -174 0
-175 174 0
-175 4 -9 0
-175 -4 9 0
175 -4 -9 -174 0
176 -175 0
-176 173 175 0
176 -173 0
-177 7 0
177 2 5 -7 10 0
-177 5 -10 0
177 2 -5 -7 -10 0
-177 -5 10 0
-177 -2 0
178 4 9 -177 0
-178 177 0
-178 4 -9 0
-178 -4 9 0
178 -4 -9 -177 0
179 3 8 -178 0
-179 178 0
-179 3 -8 0
-179 -3 8 0
179 -3 -8 -178 0
180 -179 0
-180 176 179 0
180 -176 0
-181 6 0
181 1 5 -6 10 0
-181 5 -10 0
181 1 -5 -6 -10 0
-181 -5 10 0
-181 -1 0
182 4 9 -181 0
-182 181 0
-182 4 -9 0
-182 -4 9 0
182 -4 -9 -181 0
183 3 8 -182 0
-183 182 0
-183 3 -8 0
-183 -3 8 0
183 -3 -8 -182 0
184 2 7 -183 0
-184 183 0
-184 2 -7 0
-184 -2 7 0
184 -2 -7 -183 0
185 -184 0
-185 180 184 0
185 -180 0
-186 185 0
186 -185 0
-187 0
-188 0
189 -188 0
-189 187 188 0
189 -187 0
-190 0
191 -190 0
-191 190 0
192 -191 0
-192 189 191 0
192 -189 0
-193 0
194 -193 0
-194 193 0
195 -194 0
-195 194 0
196 -195 0
-196 192 195 0
196 -192 0
-197 0
198 -197 0
-198 197 0
199 -198 0
-199 198 0
200 -199 0
-200 199 0
201 -200 0
-201 196 200 0
201 -196 0
-202 186 0
202 -186 -201 0
-202 201 0
203 -202 0
-203 186 202 0
203 -186 0
204 203 0
-204 -203 0
205 5 -15 0
-205 15 0
-205 -5 0
-206 14 0
206 4 5 -14 15 0
-206 5 -15 0
206 4 -5 -14 -15 0
-206 -5 15 0
-206 -4 0
207 -206 0
-207 205 206 0
207 -205 0
-208 13 0
208 3 5 -13 15 0
-208 5 -15 0
208 3 -5 -13 -15 0
-208 -5 15 0
-208 -3 0
209 4 14 -208 0
-209 208 0
-209 4 -14 0
-209 -4 14 0
209 -4 -14 -208 0
210 -209 0
-210 207 209 0
210 -207 0
-211 12 0
211 2 5 -12 15 0
-211 5 -15 0
211 2 -5 -12 -15 0
-211 -5 15 0
-211 -2 0
212 4 14 -211 0
-212 211 0
-212 4 -14 0
-212 -4 14 0
212 -4 -14 -211 0
213 3 13 -212 0
-213 212 0
-213 3 -13 0
-213 -3 13 0
213 -3 -13 -212 0
214 -213 0
-214 210 213 0
214 -210 0
-215 11 0
215 1 5 -11 15 0
-215 5 -15 0
215 1 -5 -11 -15 0
-215 -5 15 0
-215 -1 0
216 4 14 -215 0
-216 215 0
-216 4 -14 0
-216 -4 14 0
216 -4 -14 -215 0
217 3 13 -216 0
-217 216 0
-217 3 -13 0
-217 -3 13 0
217 -3 -13 -216 0
218 2 12 -217 0
-218 217 0
-218 2 -12 0
-218 -2 12 0
218 -2 -12 -217 0
219 -218 0
-219 214 218 0
219 -214 0
-220 204 0
220 -204 -219 0
-220 219 0
-221 203 0
221 -203 220 0
-221 -220 0
-222 220 0
222 -220 0
-223 221 0
223 -221 222 0
-223 -222 0
224 10 -15 0
-224 15 0
-224 -10 0
-225 14 0
225 9 10 -14 15 0
-225 10 -15 0
225 9 -10 -14 -15 0
-225 -10 15 0
-225 -9 0
226 -225 0
-226 224 225 0
226 -224 0
-227 13 0
227 8 10 -13 15 0
-227 10 -15 0
227 8 -10 -13 -15 0
-227 -10 15 0
-227 -8 0
228 9 14 -227 0
-228 227 0
-228 9 -14 0
-228 -9 14 0
228 -9 -14 -227 0
229 -228 0
-229 226 228 0
229 -226 0
-230 12 0
230 7 10 -12 15 0
-230 10 -15 0
230 7 -10 -12 -15 0
-230 -10 15 0
-230 -7 0
231 9 14 -230 0
-231 230 0
-231 9 -14 0
-231 -9 14 0
231 -9 -14 -230 0
232 8 13 -231 0
-232 231 0
-232 8 -13 0
-232 -8 13 0
232 -8 -13 -231 0
233 -232 0
-233 229 232 0
233 -229 0
-234 11 0
234 6 10 -11 15 0
-234 10 -15 0
234 6 -10 -11 -15 0
-234 -10 15 0
-234 -6 0
235 9 14 -234 0
-235 234 0
-235 9 -14 0
-235 -9 14 0
235 -9 -14 -234 0
236 8 13 -235 0
-236 235 0
-236 8 -13 0
-236 -8 13 0
236 -8 -13 -235 0
237 7 12 -236 0
-237 236 0
-237 7 -12 0
-237 -7 12 0
237 -7 -12 -236 0
238 -237 0
-238 233 237 0
238 -233 0
-239 223 0
239 -223 -238 0
-239 238 0
-240 221 0
240 -221 239 0
-240 -239 0
241 -239 0
-241 222 239 0
241 -222 0
242 240 0
-242 -240 0
-243 241 0
243 -241 -242 0
-243 242 0
-244 0
-245 0
246 -245 0
-246 244 245 0
246 -244 0
-247 0
248 -247 0
-248 247 0
249 -248 0
-249 246 248 0
249 -246 0
-250 0
251 -250 0
-251 250 0
252 -251 0
-252 251 0
253 -252 0
-253 249 252 0
253 -249 0
-254 0
255 -254 0
-255 254 0
256 -255 0
-256 255 0
257 -256 0
-257 256 0
258 -257 0
-258 253 257 0
258 -253 0
-259 243 0
259 -243 -258 0
-259 258 0
-260 240 0
260 -240 259 0
-260 -259 0
261 -259 0
-261 241 259 0
261 -241 0
-262 260 0
262 -260 -261 0
-262 261 0
-263 15 0
263 -15 20 0
-263 -20 0
-264 14 0
264 -14 15 19 20 0
-264 15 -20 0
-264 -19 0
264 -14 -15 19 -20 0
-264 -15 20 0
265 -264 0
-265 263 264 0
265 -263 0
-266 13 0
266 -13 15 18 20 0
-266 15 -20 0
-266 -18 0
266 -13 -15 18 -20 0
-266 -15 20 0
267 14 19 -266 0
-267 266 0
-267 14 -19 0
-267 -14 19 0
267 -14 -19 -266 0
268 -267 0
-268 265 267 0
268 -265 0
-269 12 0
269 -12 15 17 20 0
-269 15 -20 0
-269 -17 0
269 -12 -15 17 -20 0
-269 -15 20 0
270 14 19 -269 0
-270 269 0
-270 14 -19 0
-270 -14 19 0
270 -14 -19 -269 0
271 13 18 -270 0
-271 270 0
-271 13 -18 0
-271 -13 18 0
271 -13 -18 -270 0
272 -271 0
-272 268 271 0
272 -268 0
-273 11 0
273 -11 15 16 20 0
-273 15 -20 0
-273 -16 0
273 -11 -15 16 -20 0
-273 -15 20 0
274 14 19 -273 0
-274 273 0
-274 14 -19 0
-274 -14 19 0
274 -14 -19 -273 0
275 13 18 -274 0
-275 274 0
-275 13 -18 0
-275 -13 18 0
275 -13 -18 -274 0
276 12 17 -275 0
-276 275 0
-276 12 -17 0
-276 -12 17 0
276 -12 -17 -275 0
277 -276 0
-277 272 276 0
277 -272 0
-278 262 0
278 -262 -277 0
-278 277 0
-279 260 0
279 -260 278 0
-279 -278 0
280 -278 0
-280 261 278 0
280 -261 0
281 279 0
-281 -279 0
282 280 -281 0
-282 281 0
-282 -280 0
283 5 -20 0
-283 20 0
-283 -5 0
-284 19 0
284 4 5 -19 20 0
-284 5 -20 0
284 4 -5 -19 -20 0
-284 -5 20 0
-284 -4 0
285 -284 0
-285 283 284 0
285 -283 0
-286 18 0
286 3 5 -18 20 0
-286 5 -20 0
286 3 -5 -18 -20 0
-286 -5 20 0
-286 -3 0
287 4 19 -286 0
-287 286 0
-287 4 -19 0
-287 -4 19 0
287 -4 -19 -286 0
288 -287 0
-288 285 287 0
288 -285 0
-289 17 0
289 2 5 -17 20 0
-289 5 -20 0
289 2 -5 -17 -20 0
-289 -5 20 0
-289 -2 0
290 4 19 -289 0
-290 289 0
-290 4 -19 0
-290 -4 19 0
290 -4 -19 -289 0
291 3 18 -290 0
-291 290 0
-291 3 -18 0
-291 -3 18 0
291 -3 -18 -290 0
292 -291 0
-292 288 291 0
292 -288 0
-293 16 0
293 1 5 -16 20 0
-293 5 -20 0
293 1 -5 -16 -20 0
-293 -5 20 0
-293 -1 0
294 4 19 -293 0
-294 293 0
-294 4 -19 0
-294 -4 19 0
294 -4 -19 -293 0
295 3 18 -294 0
-295 294 0
-295 3 -18 0
-295 -3 18 0
295 -3 -18 -294 0
296 2 17 -295 0
-296 295 0
-296 2 -17 0
-296 -2 17 0
296 -2 -17 -295 0
297 -296 0
-297 292 296 0
297 -292 0
-298 282 0
298 -282 -297 0
-298 297 0
299 -298 0
-299 279 298 0
299 -279 0
300 -298 0
-300 280 298 0
300 -280 0
-301 299 0
301 -299 300 0
-301 -300 0
302 10 -20 0
-302 20 0
-302 -10 0
-303 19 0
303 9 10 -19 20 0
-303 10 -20 0
303 9 -10 -19 -20 0
-303 -10 20 0
-303 -9 0
304 -303 0
-304 302 303 0
304 -302 0
-305 18 0
305 8 10 -18 20 0
-305 10 -20 0
305 8 -10 -18 -20 0
-305 -10 20 0
-305 -8 0
306 9 19 -305 0
-306 305 0
-306 9 -19 0
-306 -9 19 0
306 -9 -19 -305 0
307 -306 0
-307 304 306 0
307 -304 0
-308 17 0
308 7 10 -17 20 0
-308 10 -20 0
308 7 -10 -17 -20 0
-308 -10 20 0
-308 -7 0
309 9 19 -308 0
-309 308 0
-309 9 -19 0
-309 -9 19 0
309 -9 -19 -308 0
310 8 18 -309 0
-310 309 0
-310 8 -18 0
-310 -8 18 0
310 -8 -18 -309 0
311 -310 0
-311 307 310 0
311 -307 0
-312 16 0
312 6 10 -16 20 0
-312 10 -20 0
312 6 -10 -16 -20 0
-312 -10 20 0
-312 -6 0
313 9 19 -312 0
-313 312 0
-313 9 -19 0
-313 -9 19 0
313 -9 -19 -312 0
314 8 18 -313 0
-314 313 0
-314 8 -18 0
-314 -8 18 0
314 -8 -18 -313 0
315 7 17 -314 0
-315 314 0
-315 7 -17 0
-315 -7 17 0
315 -7 -17 -314 0
316 -315 0
-316 311 315 0
316 -311 0
-317 301 0
317 -301 -316 0
-317 316 0
318 -317 0
-318 299 317 0
318 -299 0
319 -317 0
-319 300 317 0
319 -300 0
320 318 0
-320 -318 0
-321 319 0
321 -319 -320 0
-321 320 0
322 15 -20 0
-322 20 0
-322 -15 0
-323 19 0
323 14 15 -19 20 0
-323 15 -20 0
323 14 -15 -19 -20 0
-323 -15 20 0
-323 -14 0
324 -323 0
-324 322 323 0
324 -322 0
-325 18 0
325 13 15 -18 20 0
-325 15 -20 0
325 13 -15 -18 -20 0
-325 -15 20 0
-325 -13 0
326 14 19 -325 0
-326 325 0
-326 14 -19 0
-326 -14 19 0
326 -14 -19 -325 0
327 -326 0
-327 324 326 0
327 -324 0
-328 17 0
328 12 15 -17 20 0
-328 15 -20 0
328 12 -15 -17 -20 0
-328 -15 20 0
-328 -12 0
329 14 19 -328 0
-329 328 0
-329 14 -19 0
-329 -14 19 0
329 -14 -19 -328 0
330 13 18 -329 0
-330 329 0
-330 13 -18 0
-330 -13 18 0
330 -13 -18 -329 0
331 -330 0
-331 327 330 0
331 -327 0
-332 16 0
332 11 15 -16 20 0
-332 15 -20 0
332 11 -15 -16 -20 0
-332 -15 20 0
-332 -11 0
333 14 19 -332 0
-333 332 0
-333 14 -19 0
-333 -14 19 0
333 -14 -19 -332 0
334 13 18 -333 0
-334 333 0
-334 13 -18 0
-334 -13 18 0
334 -13 -18 -333 0
335 12 17 -334 0
-335 334 0
-335 12 -17 0
-335 -12 17 0
335 -12 -17 -334 0
336 -335 0
-336 331 335 0
336 -331 0
-337 321 0
337 -321 -336 0
-337 336 0
338 -337 0
-338 318 337 0
338 -318 0
339 -337 0
-339 319 337 0
339 -319 0
-340 338 0
340 -338 -339 0
-340 339 0
-341 0
-342 0
343 -342 0
-343 341 342 0
343 -341 0
-344 0
345 -344 0
-345 344 0
346 -345 0
-346 343 345 0
346 -343 0
-347 0
348 -347 0
-348 347 0
349 -348 0
-349 348 0
350 -349 0
-350 346 349 0
350 -346 0
-351 0
352 -351 0
-352 351 0
353 -352 0
-353 352 0
354 -353 0
-354 353 0
355 -354 0
-355 350 354 0
355 -350 0
-356 340 0
356 -340 -355 0
-356 355 0
357 -356 0
-357 338 356 0
357 -338 0
358 -356 0
-358 339 356 0
358 -339 0
-359 357 0
359 -357 358 0
-359 -358 0
360 -1 359 0
360 -6 -359 0
-360 1 359 0
-360 6 -359 0
361 -2 359 0
361 -7 -359 0
-361 2 359 0
-361 7 -359 0
362 -3 359 0
362 -8 -359 0
-362 3 359 0
-362 8 -359 0
363 -4 359 0
363 -9 -359 0
-363 4 359 0
-363 9 -359 0
364 -5 359 0
364 -10 -359 0
-364 5 359 0
-364 10 -359 0
365 -6 359 0
365 -1 -359 0
-365 6 359 0
-365 1 -359 0
366 -7 359 0
366 -2 -359 0
-366 7 359 0
-366 2 -359 0
367 -8 359 0
367 -3 -359 0
-367 8 359 0
-367 3 -359 0
368 -9 359 0
368 -4 -359 0
-368 9 359 0
-368 4 -359 0
369 -10 359 0
369 -5 -359 0
-369 10 359 0
-369 5 -359 0
370 357 0
-370 -357 0
-371 358 0
371 -358 -370 0
-371 370 0
372 -360 371 0
372 -11 -371 0
-372 360 371 0
-372 11 -371 0
373 -361 371 0
373 -12 -371 0
-373 361 371 0
-373 12 -371 0
374 -362 371 0
374 -13 -371 0
-374 362 371 0
-374 13 -371 0
375 -363 371 0
375 -14 -371 0
-375 363 371 0
-375 14 -371 0
376 -364 371 0
376 -15 -371 0
-376 364 371 0
-376 15 -371 0
377 -11 371 0
377 -360 -371 0
-377 11 371 0
-377 360 -371 0
378 -12 371 0
378 -361 -371 0
-378 12 371 0
-378 361 -371 0
379 -13 371 0
379 -362 -371 0
-379 13 371 0
-379 362 -371 0
380 -14 371 0
380 -363 -371 0
-380 14 371 0
-380 363 -371 0
381 -15 371 0
381 -364 -371 0
-381 15 371 0
-381 364 -371 0
382 -365 0
-382 365 0
383 -366 0
-383 366 0
384 -367 0
-384 367 0
385 -368 0
-385 368 0
386 -369 0
-386 369 0
-387 357 0
387 -357 -358 0
-387 358 0
388 387 0
-388 -387 0
389 -372 388 0
389 -16 -388 0
-389 372 388 0
-389 16 -388 0
390 -373 388 0
390 -17 -388 0
-390 373 388 0
-390 17 -388 0
391 -374 388 0
391 -18 -388 0
-391 374 388 0
-391 18 -388 0
392 -375 388 0
392 -19 -388 0
-392 375 388 0
-392 19 -388 0
393 -376 388 0
393 -20 -388 0
-393 376 388 0
-393 20 -388 0
394 -16 388 0
394 -372 -388 0
-394 16 388 0
-394 372 -388 0
395 -17 388 0
395 -373 -388 0
-395 17 388 0
-395 373 -388 0
396 -18 388 0
396 -374 -388 0
-396 18 388 0
-396 374 -388 0
397 -19 388 0
397 -375 -388 0
-397 19 388 0
-397 375 -388 0
398 -20 388 0
398 -376 -388 0
-398 20 388 0
-398 376 -388 0
399 -382 388 0
399 -377 -388 0
-399 382 388 0
-399 377 -388 0
400 -383 388 0
400 -378 -388 0
-400 383 388 0
-400 378 -388 0
401 -384 388 0
401 -379 -388 0
-401 384 388 0
-401 379 -388 0
402 -385 388 0
402 -380 -388 0
-402 385 388 0
-402 380 -388 0
403 -386 388 0
403 -381 -388 0
-403 386 388 0
-403 381 -388 0
404 -377 388 0
404 -382 -388 0
-404 377 388 0
-404 382 -388 0
405 -378 388 0
405 -383 -388 0
-405 378 388 0
-405 383 -388 0
406 -379 388 0
406 -384 -388 0
-406 379 388 0
-406 384 -388 0
407 -380 388 0
407 -385 -388 0
-407 380 388 0
-407 385 -388 0
408 -381 388 0
408 -386 -388 0
-408 381 388 0
-408 386 -388 0
409 393 -403 0
-409 403 0
-409 -393 0
-410 402 0
410 392 393 -402 403 0
-410 393 -403 0
410 392 -393 -402 -403 0
-410 -393 403 0
-410 -392 0
411 -410 0
-411 409 410 0
411 -409 0
-412 401 0
412 391 393 -401 403 0
-412 393 -403 0
412 391 -393 -401 -403 0
-412 -393 403 0
-412 -391 0
413 392 402 -412 0
-413 412 0
-413 392 -402 0
-413 -392 402 0
413 -392 -402 -412 0
414 -413 0
-414 411 413 0
414 -411 0
-415 400 0
415 390 393 -400 403 0
-415 393 -403 0
415 390 -393 -400 -403 0
-415 -393 403 0
-415 -390 0
416 392 402 -415 0
-416 415 0
-416 392 -402 0
-416 -392 402 0
416 -392 -402 -415 0
417 391 401 -416 0
-417 416 0
-417 391 -401 0
-417 -391 401 0
417 -391 -401 -416 0
418 -417 0
-418 414 417 0
418 -414 0
-419 399 0
419 389 393 -399 403 0
-419 393 -403 0
419 389 -393 -399 -403 0
-419 -393 403 0
-419 -389 0
420 392 402 -419 0
-420 419 0
-420 392 -402 0
-420 -392 402 0
420 -392 -402 -419 0
421 391 401 -420 0
-421 420 0
-421 391 -401 0
-421 -391 401 0
421 -391 -401 -420 0
422 390 400 -421 0
-422 421 0
-422 390 -400 0
-422 -390 400 0
422 -390 -400 -421 0
423 -422 0
-423 418 422 0
423 -418 0
-424 423 0
424 -423 0
-425 0
-426 0
427 -426 0
-427 425 426 0
427 -425 0
-428 0
429 -428 0
-429 428 0
430 -429 0
-430 427 429 0
430 -427 0
-431 0
432 -431 0
-432 431 0
433 -432 0
-433 432 0
434 -433 0
-434 430 433 0
434 -430 0
-435 0
436 -435 0
-436 435 0
437 -436 0
-437 436 0
438 -437 0
-438 437 0
439 -438 0
-439 434 438 0
439 -434 0
-440 424 0
440 -424 -439 0
-440 439 0
441 -440 0
-441 424 440 0
441 -424 0
442 441 0
-442 -441 0
443 393 -408 0
-443 408 0
-443 -393 0
-444 407 0
444 392 393 -407 408 0
-444 393 -408 0
444 392 -393 -407 -408 0
-444 -393 408 0
-444 -392 0
445 -444 0
-445 443 444 0
445 -443 0
-446 406 0
446 391 393 -406 408 0
-446 393 -408 0
446 391 -393 -406 -408 0
-446 -393 408 0
-446 -391 0
447 392 407 -446 0
-447 446 0
-447 392 -407 0
-447 -392 407 0
447 -392 -407 -446 0
448 -447 0
-448 445 447 0
448 -445 0
-449 405 0
449 390 393 -405 408 0
-449 393 -408 0
449 390 -393 -405 -408 0
-449 -393 408 0
-449 -390 0
450 392 407 -449 0
-450 449 0
-450 392 -407 0
-450 -392 407 0
450 -392 -407 -449 0
451 391 406 -450 0
-451 450 0
-451 391 -406 0
-451 -391 406 0
451 -391 -406 -450 0
452 -451 0
-452 448 451 0
452 -448 0
-453 404 0
453 389 393 -404 408 0
-453 393 -408 0
453 389 -393 -404 -408 0
-453 -393 408 0
-453 -389 0
454 392 407 -453 0
-454 453 0
-454 392 -407 0
-454 -392 407 0
454 -392 -407 -453 0
455 391 406 -454 0
-455 454 0
-455 391 -406 0
-455 -391 406 0
455 -391 -406 -454 0
456 390 405 -455 0
-456 455 0
-456 390 -405 0
-456 -390 405 0
456 -390 -405 -455 0
457 -456 0
-457 452 456 0
457 -452 0
-458 442 0
458 -442 -457 0
-458 457 0
-459 441 0
459 -441 458 0
-459 -458 0
-460 458 0
460 -458 0
-461 459 0
461 -459 460 0
-461 -460 0
462 403 -408 0
-462 408 0
-462 -403 0
-463 407 0
463 402 403 -407 408 0
-463 403 -408 0
463 402 -403 -407 -408 0
-463 -403 408 0
-463 -402 0
464 -463 0
-464 462 463 0
464 -462 0
-465 406 0
465 401 403 -406 408 0
-465 403 -408 0
465 401 -403 -406 -408 0
-465 -403 408 0
-465 -401 0
466 402 407 -465 0
-466 465 0
-466 402 -407 0
-466 -402 407 0
466 -402 -407 -465 0
467 -466 0
-467 464 466 0
467 -464 0
-468 405 0
468 400 403 -405 408 0
-468 403 -408 0
468 400 -403 -405 -408 0
-468 -403 408 0
-468 -400 0
469 402 407 -468 0
-469 468 0
-469 402 -407 0
-469 -402 407 0
469 -402 -407 -468 0
470 401 406 -469 0
-470 469 0
-470 401 -406 0
-470 -401 406 0
470 -401 -406 -469 0
471 -470 0
-471 467 470 0
471 -467 0
-472 404 0
472 399 403 -404 408 0
-472 403 -408 0
472 399 -403 -404 -408 0
-472 -403 408 0
-472 -399 0
473 402 407 -472 0
-473 472 0
-473 402 -407 0
-473 -402 407 0
473 -402 -407 -472 0
474 401 406 -473 0
-474 473 0
-474 401 -406 0
-474 -401 406 0
474 -401 -406 -473 0
475 400 405 -474 0
-475 474 0
-475 400 -405 0
-475 -400 405 0
475 -400 -405 -474 0
476 -475 0
-476 471 475 0
476 -471 0
-477 461 0
477 -461 -476 0
-477 476 0
-478 459 0
478 -459 477 0
-478 -477 0
479 -477 0
-479 460 477 0
479 -460 0
480 478 0
-480 -478 0
-481 479 0
481 -479 -480 0
-481 480 0
-482 0
-483 0
484 -483 0
-484 482 483 0
484 -482 0
-485 0
486 -485 0
-486 485 0
487 -486 0
-487 484 486 0
487 -484 0
-488 0
489 -488 0
-489 488 0
490 -489 0
-490 489 0
491 -490 0
-491 487 490 0
491 -487 0
-492 0
493 -492 0
-493 492 0
494 -493 0
-494 493 0
495 -494 0
-495 494 0
496 -495 0
-496 491 495 0
496 -491 0
-497 481 0
497 -481 -496 0
-497 496 0
-498 478 0
498 -478 497 0
-498 -497 0
499 -497 0
-499 479 497 0
499 -479 0
-500 498 0
500 -498 499 0
-500 -499 0
501 -389 500 0
501 -399 -500 0
-501 389 500 0
-501 399 -500 0
502 -390 500 0
502 -400 -500 0
-502 390 500 0
-502 400 -500 0
503 -391 500 0
503 -401 -500 0
-503 391 500 0
-503 401 -500 0
504 -392 500 0
504 -402 -500 0
-504 392 500 0
-504 402 -500 0
505 -393 500 0
505 -403 -500 0
-505 393 500 0
-505 403 -500 0
506 -399 500 0
506 -389 -500 0
-506 399 500 0
-506 389 -500 0
507 -400 500 0
507 -390 -500 0
-507 400 500 0
-507 390 -500 0
508 -401 500 0
508 -391 -500 0
-508 401 500 0
-508 391 -500 0
509 -402 500 0
509 -392 -500 0
-509 402 500 0
-509 392 -500 0
510 -403 500 0
510 -393 -500 0
-510 403 500 0
-510 393 -500 0
511 498 0
-511 -498 0
-512 499 0
512 -499 -511 0
-512 511 0
513 512 0
-513 -512 0
514 -501 513 0
514 -404 -513 0
-514 501 513 0
-514 404 -513 0
515 -502 513 0
515 -405 -513 0
-515 502 513 0
-515 405 -513 0
516 -503 513 0
516 -406 -513 0
-516 503 513 0
-516 406 -513 0
517 -504 513 0
517 -407 -513 0
-517 504 513 0
-517 407 -513 0
518 -505 513 0
518 -408 -513 0
-518 505 513 0
-518 408 -513 0
519 -404 513 0
519 -501 -513 0
-519 404 513 0
-519 501 -513 0
520 -405 513 0
520 -502 -513 0
-520 405 513 0
-520 502 -513 0
521 -406 513 0
521 -503 -513 0
-521 406 513 0
-521 503 -513 0
522 -407 513 0
522 -504 -513 0
-522 407 513 0
-522 504 -513 0
523 -408 513 0
523 -505 -513 0
-523 408 513 0
-523 505 -513 0
524 -506 0
-524 506 0
525 -507 0
-525 507 0
526 -508 0
-526 508 0
527 -509 0
-527 509 0
528 -510 0
-528 510 0
529 518 -528 0
-529 528 0
-529 -518 0
-530 527 0
530 517 518 -527 528 0
-530 518 -528 0
530 517 -518 -527 -528 0
-530 -518 528 0
-530 -517 0
531 -530 0
-531 529 530 0
531 -529 0
-532 526 0
532 516 518 -526 528 0
-532 518 -528 0
532 516 -518 -526 -528 0
-532 -518 528 0
-532 -516 0
533 517 527 -532 0
-533 532 0
-533 517 -527 0
-533 -517 527 0
533 -517 -527 -532 0
534 -533 0
-534 531 533 0
534 -531 0
-535 525 0
535 515 518 -525 528 0
-535 518 -528 0
535 515 -518 -525 -528 0
-535 -518 528 0
-535 -515 0
536 517 527 -535 0
-536 535 0
-536 517 -527 0
-536 -517 527 0
536 -517 -527 -535 0
537 516 526 -536 0
-537 536 0
-537 516 -526 0
-537 -516 526 0
537 -516 -526 -536 0
538 -537 0
-538 534 537 0
538 -534 0
-539 524 0
539 514 518 -524 528 0
-539 518 -528 0
539 514 -518 -524 -528 0
-539 -518 528 0
-539 -514 0
540 517 527 -539 0
-540 539 0
-540 517 -527 0
-540 -517 527 0
540 -517 -527 -539 0
541 516 526 -540 0
-541 540 0
-541 516 -526 0
-541 -516 526 0
541 -516 -526 -540 0
542 515 525 -541 0
-542 541 0
-542 515 -525 0
-542 -515 525 0
542 -515 -525 -541 0
543 -542 0
-543 538 542 0
543 -538 0
-544 543 0
544 -543 0
-545 0
-546 0
547 -546 0
-547 545 546 0
547 -545 0
-548 0
549 -548 0
-549 548 0
550 -549 0
-550 547 549 0
550 -547 0
-551 0
552 -551 0
-552 551 0
553 -552 0
-553 552 0
554 -553 0
-554 550 553 0
554 -550 0
-555 0
556 -555 0
-556 555 0
557 -556 0
-557 556 0
558 -557 0
-558 557 0
559 -558 0
-559 554 558 0
559 -554 0
-560 544 0
560 -544 -559 0
-560 559 0
561 -560 0
-561 544 560 0
561 -544 0
562 561 0
-562 -561 0
563 -514 562 0
563 -524 -562 0
-563 514 562 0
-563 524 -562 0
564 -515 562 0
564 -525 -562 0
-564 515 562 0
-564 525 -562 0
565 -516 562 0
565 -526 -562 0
-565 516 562 0
-565 526 -562 0
566 -517 562 0
566 -527 -562 0
-566 517 562 0
-566 527 -562 0
567 -518 562 0
567 -528 -562 0
-567 518 562 0
-567 528 -562 0
568 -524 562 0
568 -514 -562 0
-568 524 562 0
-568 514 -562 0
569 -525 562 0
569 -515 -562 0
-569 525 562 0
-569 515 -562 0
570 -526 562 0
570 -516 -562 0
-570 526 562 0
-570 516 -562 0
571 -527 562 0
571 -517 -562 0
-571 527 562 0
-571 517 -562 0
572 -528 562 0
572 -518 -562 0
-572 528 562 0
-572 518 -562 0
573 161 -563 0
573 -161 563 0
-573 161 563 0
-573 -161 -563 0
574 162 -564 0
574 -162 564 0
-574 162 564 0
-574 -162 -564 0
575 163 -565 0
575 -163 565 0
-575 163 565 0
-575 -163 -565 0
576 164 -566 0
576 -164 566 0
-576 164 566 0
-576 -164 -566 0
577 165 -567 0
577 -165 567 0
-577 165 567 0
-577 -165 -567 0
578 166 -568 0
578 -166 568 0
-578 166 568 0
-578 -166 -568 0
579 167 -569 0
579 -167 569 0
-579 167 569 0
-579 -167 -569 0
580 168 -570 0
580 -168 570 0
-580 168 570 0
-580 -168 -570 0
581 169 -571 0
581 -169 571 0
-581 169 571 0
-581 -169 -571 0
582 170 -572 0
582 -170 572 0
-582 170 572 0
-582 -170 -572 0
583 141 -519 0
583 -141 519 0
-583 141 519 0
-583 -141 -519 0
584 142 -520 0
584 -142 520 0
-584 142 520 0
-584 -142 -520 0
585 143 -521 0
585 -143 521 0
-585 143 521 0
-585 -143 -521 0
586 144 -522 0
586 -144 522 0
-586 144 522 0
-586 -144 -522 0
587 145 -523 0
587 -145 523 0
-587 145 523 0
-587 -145 -523 0
588 91 -394 0
588 -91 394 0
-588 91 394 0
-588 -91 -394 0
589 92 -395 0
589 -92 395 0
-589 92 395 0
-589 -92 -395 0
590 93 -396 0
590 -93 396 0
-590 93 396 0
-590 -93 -396 0
591 94 -397 0
591 -94 397 0
-591 94 397 0
-591 -94 -397 0
592 95 -398 0
592 -95 398 0
-592 95 398 0
-592 -95 -398 0
593 -577 0
-593 573 574 575 576 577 0
593 -576 0
593 -575 0
593 -574 0
593 -573 0
594 -582 0
-594 578 579 580 581 582 0
594 -581 0
594 -580 0
594 -579 0
594 -578 0
595 -587 0
-595 583 584 585 586 587 0
595 -586 0
595 -585 0
595 -584 0
595 -583 0
596 -592 0
-596 588 589 590 591 592 0
596 -591 0
596 -590 0
596 -589 0
596 -588 0
597 -596 0
-597 593 594 595 596 0
597 -595 0
597 -594 0
597 -593 0
597 0
